LPFile/barbettes/26_4_barbettes_0.lp
Minimize
   z: 151 quantity_e_0_0 + 116 quantity_e_1_0 + 116 quantity_e_2_0 + 107 quantity_e_3_0 + 80 quantity_e_4_0 + 202 quantity_e_5_0 + 45 quantity_e_6_0 + 100 quantity_e_7_0 + 153 quantity_e_8_0 + 140 quantity_e_9_0 + 153 quantity_e_10_0 + 164 quantity_e_11_0 + 132 quantity_e_12_0 + 130 quantity_e_13_0 + 29 quantity_e_14_0 + 51 quantity_e_15_0 + 151 quantity_e_16_0 + 124 quantity_e_17_0 + 92 quantity_e_18_0 + 121 quantity_e_19_0 + 92 quantity_e_20_0 + 54 quantity_e_21_0 + 139 quantity_e_22_0 + 94 quantity_e_23_0 + 215 quantity_e_24_0 + 85 quantity_e_25_0 + 178 quantity_e_26_0 + 106 quantity_e_27_0 + 138 quantity_e_28_0 + 159 quantity_e_29_0 + 152 quantity_e_30_0 + 137 quantity_e_31_0 + 127 quantity_e_32_0 + 117 quantity_e_33_0 + 190 quantity_e_34_0 + 170 quantity_e_35_0 - 38 quantity_e_36_0 + 65 quantity_e_37_0 + 206 quantity_e_38_0 + 49 quantity_e_39_0 + 54 quantity_e_40_0 + 54 quantity_e_41_0 + 108 quantity_e_42_0 + 149 quantity_e_43_0 + 233 quantity_e_44_0 + 82 quantity_e_45_0 + 175 quantity_e_46_0 + 240 quantity_e_47_0 + 115 quantity_e_48_0 + 80 quantity_e_49_0 + 175 quantity_e_50_0 + 158 quantity_e_51_0 + 94 quantity_e_52_0 + 36 quantity_e_53_0 + 282 quantity_e_54_0 + 168 quantity_e_55_0 + 253 quantity_e_56_0 + 185 quantity_e_57_0 + 247 quantity_e_58_0 + 149 quantity_e_59_0 + 63 quantity_e_60_0 + 97 quantity_e_61_0 + 157 quantity_e_62_0 + 143 quantity_e_63_0 + 190 quantity_e_64_0 + 70 quantity_e_65_0 + 99 quantity_e_66_0 - 57 quantity_e_67_0 + 203 quantity_e_68_0 + 75 quantity_e_69_0 + 86 quantity_e_70_0 + 214 quantity_e_71_0 + 259 quantity_e_72_0 + 241 quantity_e_73_0 + 194 quantity_e_74_0 + 79 quantity_e_75_0
Subject to
   contraite_20_0: quantity_e_32_0 - quantity_e_33_0 = 1419
   contraite_8_0: quantity_e_12_0 + quantity_e_14_0 + quantity_e_33_0 + quantity_e_35_0 - quantity_e_13_0 - quantity_e_15_0 - quantity_e_32_0 - quantity_e_34_0 = 1584
   contraite_16_0: quantity_e_62_0 - quantity_e_61_0 = 1557
   contraite_2_0: quantity_e_11_0 + quantity_e_13_0 + quantity_e_15_0 + quantity_e_17_0 - quantity_e_10_0 - quantity_e_12_0 - quantity_e_14_0 - quantity_e_16_0 = 1315
   contraite_19_0: quantity_e_56_0 + quantity_e_61_0 - quantity_e_57_0 - quantity_e_62_0 = 447
   contraite_23_0: quantity_e_34_0 + quantity_e_38_0 + quantity_e_67_0 - quantity_e_35_0 - quantity_e_39_0 - quantity_e_68_0 = 551
   contraite_7_0: quantity_e_9_0 + quantity_e_30_0 - quantity_e_8_0 - quantity_e_31_0 <= 1050
   contraite_1_0: quantity_e_6_0 + quantity_e_8_0 - quantity_e_7_0 - quantity_e_9_0 <= 1512
   contraite_11_0: quantity_e_7_0 + quantity_e_47_0 + quantity_e_52_0 - quantity_e_6_0 - quantity_e_46_0 - quantity_e_53_0 <= 1433
   contraite_24_0: quantity_e_31_0 + quantity_e_53_0 + quantity_e_74_0 - quantity_e_30_0 - quantity_e_52_0 - quantity_e_73_0 <= 1791
   contraite_3_0: quantity_e_18_0 + quantity_e_20_0 - quantity_e_19_0 - quantity_e_21_0 <= 1094
   contraite_0_0: quantity_e_1_0 + quantity_e_3_0 + quantity_e_5_0 - quantity_e_0_0 - quantity_e_2_0 - quantity_e_4_0 = 0
   contraite_4_0: quantity_e_23_0 - quantity_e_22_0 = 0
   contraite_5_0: quantity_e_25_0 - quantity_e_24_0 = 0
   contraite_6_0: quantity_e_27_0 + quantity_e_29_0 - quantity_e_26_0 - quantity_e_28_0 = 0
   contraite_9_0: quantity_e_28_0 + quantity_e_37_0 + quantity_e_39_0 + quantity_e_41_0 + quantity_e_43_0 - quantity_e_29_0 - quantity_e_36_0 - quantity_e_38_0 - quantity_e_40_0 - quantity_e_42_0 = 0
   contraite_10_0: quantity_e_45_0 + quantity_e_47_0 + quantity_e_49_0 + quantity_e_51_0 - quantity_e_44_0 - quantity_e_46_0 - quantity_e_48_0 - quantity_e_50_0 = 0
   contraite_12_0: quantity_e_2_0 + quantity_e_50_0 + quantity_e_55_0 + quantity_e_57_0 + quantity_e_59_0 - quantity_e_3_0 - quantity_e_51_0 - quantity_e_54_0 - quantity_e_56_0 - quantity_e_58_0 = 0
   contraite_13_0: quantity_e_20_0 + quantity_e_48_0 - quantity_e_21_0 - quantity_e_49_0 = 0
   contraite_14_0: quantity_e_18_0 + quantity_e_22_0 + quantity_e_54_0 - quantity_e_19_0 - quantity_e_23_0 - quantity_e_55_0 = 0
   contraite_15_0: quantity_e_44_0 - quantity_e_45_0 = 0
   contraite_17_0: quantity_e_4_0 + quantity_e_10_0 + quantity_e_36_0 + quantity_e_64_0 + quantity_e_66_0 - quantity_e_5_0 - quantity_e_11_0 - quantity_e_37_0 - quantity_e_63_0 - quantity_e_65_0 = 0
   contraite_18_0: quantity_e_0_0 + quantity_e_16_0 + quantity_e_68_0 + quantity_e_70_0 - quantity_e_1_0 - quantity_e_17_0 - quantity_e_67_0 - quantity_e_69_0 = 0
   contraite_21_0: quantity_e_58_0 + quantity_e_72_0 - quantity_e_59_0 - quantity_e_71_0 = 0
   contraite_22_0: quantity_e_24_0 + quantity_e_63_0 + quantity_e_71_0 + quantity_e_74_0 - quantity_e_25_0 - quantity_e_64_0 - quantity_e_72_0 - quantity_e_73_0 = 0
   contraite_25_0: quantity_e_26_0 + quantity_e_40_0 + quantity_e_42_0 + quantity_e_65_0 + quantity_e_69_0 - quantity_e_27_0 - quantity_e_41_0 - quantity_e_43_0 - quantity_e_66_0 - quantity_e_70_0 = 0
Bounds
   quantity_e_0_0 >= 0
   quantity_e_1_0 >= 0
   quantity_e_2_0 >= 0
   quantity_e_3_0 >= 0
   quantity_e_4_0 >= 0
   quantity_e_5_0 >= 0
   quantity_e_6_0 >= 0
   quantity_e_7_0 >= 0
   quantity_e_8_0 >= 0
   quantity_e_9_0 >= 0
   quantity_e_10_0 >= 0
   quantity_e_11_0 >= 0
   quantity_e_12_0 >= 0
   quantity_e_13_0 >= 0
   quantity_e_14_0 >= 0
   quantity_e_15_0 >= 0
   quantity_e_16_0 >= 0
   quantity_e_17_0 >= 0
   quantity_e_18_0 >= 0
   quantity_e_19_0 >= 0
   quantity_e_20_0 >= 0
   quantity_e_21_0 >= 0
   quantity_e_22_0 >= 0
   quantity_e_23_0 >= 0
   quantity_e_24_0 >= 0
   quantity_e_25_0 >= 0
   quantity_e_26_0 >= 0
   quantity_e_27_0 >= 0
   quantity_e_28_0 >= 0
   quantity_e_29_0 >= 0
   quantity_e_30_0 >= 0
   quantity_e_31_0 >= 0
   quantity_e_32_0 >= 0
   quantity_e_33_0 >= 0
   quantity_e_34_0 >= 0
   quantity_e_35_0 >= 0
   quantity_e_36_0 >= 0
   quantity_e_37_0 >= 0
   quantity_e_38_0 >= 0
   quantity_e_39_0 >= 0
   quantity_e_40_0 >= 0
   quantity_e_41_0 >= 0
   quantity_e_42_0 >= 0
   quantity_e_43_0 >= 0
   quantity_e_44_0 >= 0
   quantity_e_45_0 >= 0
   quantity_e_46_0 >= 0
   quantity_e_47_0 >= 0
   quantity_e_48_0 >= 0
   quantity_e_49_0 >= 0
   quantity_e_50_0 >= 0
   quantity_e_51_0 >= 0
   quantity_e_52_0 >= 0
   quantity_e_53_0 >= 0
   quantity_e_54_0 >= 0
   quantity_e_55_0 >= 0
   quantity_e_56_0 >= 0
   quantity_e_57_0 >= 0
   quantity_e_58_0 >= 0
   quantity_e_59_0 >= 0
   quantity_e_60_0 >= 0
   quantity_e_61_0 >= 0
   quantity_e_62_0 >= 0
   quantity_e_63_0 >= 0
   quantity_e_64_0 >= 0
   quantity_e_65_0 >= 0
   quantity_e_66_0 >= 0
   quantity_e_67_0 >= 0
   quantity_e_68_0 >= 0
   quantity_e_69_0 >= 0
   quantity_e_70_0 >= 0
   quantity_e_71_0 >= 0
   quantity_e_72_0 >= 0
   quantity_e_73_0 >= 0
   quantity_e_74_0 >= 0
   quantity_e_75_0 >= 0
Integer
   quantity_e_0_0
   quantity_e_1_0
   quantity_e_2_0
   quantity_e_3_0
   quantity_e_4_0
   quantity_e_5_0
   quantity_e_6_0
   quantity_e_7_0
   quantity_e_8_0
   quantity_e_9_0
   quantity_e_10_0
   quantity_e_11_0
   quantity_e_12_0
   quantity_e_13_0
   quantity_e_14_0
   quantity_e_15_0
   quantity_e_16_0
   quantity_e_17_0
   quantity_e_18_0
   quantity_e_19_0
   quantity_e_20_0
   quantity_e_21_0
   quantity_e_22_0
   quantity_e_23_0
   quantity_e_24_0
   quantity_e_25_0
   quantity_e_26_0
   quantity_e_27_0
   quantity_e_28_0
   quantity_e_29_0
   quantity_e_30_0
   quantity_e_31_0
   quantity_e_32_0
   quantity_e_33_0
   quantity_e_34_0
   quantity_e_35_0
   quantity_e_36_0
   quantity_e_37_0
   quantity_e_38_0
   quantity_e_39_0
   quantity_e_40_0
   quantity_e_41_0
   quantity_e_42_0
   quantity_e_43_0
   quantity_e_44_0
   quantity_e_45_0
   quantity_e_46_0
   quantity_e_47_0
   quantity_e_48_0
   quantity_e_49_0
   quantity_e_50_0
   quantity_e_51_0
   quantity_e_52_0
   quantity_e_53_0
   quantity_e_54_0
   quantity_e_55_0
   quantity_e_56_0
   quantity_e_57_0
   quantity_e_58_0
   quantity_e_59_0
   quantity_e_60_0
   quantity_e_61_0
   quantity_e_62_0
   quantity_e_63_0
   quantity_e_64_0
   quantity_e_65_0
   quantity_e_66_0
   quantity_e_67_0
   quantity_e_68_0
   quantity_e_69_0
   quantity_e_70_0
   quantity_e_71_0
   quantity_e_72_0
   quantity_e_73_0
   quantity_e_74_0
   quantity_e_75_0
End