LPFile/barbettes/26_4_barbettes_0.sol
Problem:    
Rows:       26
Columns:    76 (76 integer, 0 binary)
Non-zeros:  148
Status:     INTEGER OPTIMAL
Objective:  z = 4731114 (MINimum)

   No.   Row name        Activity     Lower bound   Upper bound
------ ------------    ------------- ------------- -------------
     1 contraite_20_0
                                1419          1419             = 
     2 contraite_8_0
                                1584          1584             = 
     3 contraite_16_0
                                1557          1557             = 
     4 contraite_2_0
                                1315          1315             = 
     5 contraite_19_0
                                 447           447             = 
     6 contraite_23_0
                                 551           551             = 
     7 contraite_7_0
                                1043                        1050 
     8 contraite_1_0
                                1512                        1512 
     9 contraite_11_0
                                1433                        1433 
    10 contraite_24_0
                                1791                        1791 
    11 contraite_3_0
                                1094                        1094 
    12 contraite_0_0
                                   0             0             = 
    13 contraite_4_0
                                   0             0             = 
    14 contraite_5_0
                                   0             0             = 
    15 contraite_6_0
                                   0             0             = 
    16 contraite_9_0
                                   0             0             = 
    17 contraite_10_0
                                   0             0             = 
    18 contraite_12_0
                                   0             0             = 
    19 contraite_13_0
                                   0             0             = 
    20 contraite_14_0
                                   0             0             = 
    21 contraite_15_0
                                   0             0             = 
    22 contraite_17_0
                                   0             0             = 
    23 contraite_18_0
                                   0             0             = 
    24 contraite_21_0
                                   0             0             = 
    25 contraite_22_0
                                   0             0             = 
    26 contraite_25_0
                                   0             0             = 

   No. Column name       Activity     Lower bound   Upper bound
------ ------------    ------------- ------------- -------------
     1 quantity_e_0_0
                    *              0             0               
     2 quantity_e_1_0
                    *              0             0               
     3 quantity_e_2_0
                    *              0             0               
     4 quantity_e_3_0
                    *              0             0               
     5 quantity_e_4_0
                    *              0             0               
     6 quantity_e_5_0
                    *              0             0               
     7 quantity_e_6_0
                    *           1512             0               
     8 quantity_e_7_0
                    *              0             0               
     9 quantity_e_8_0
                    *              0             0               
    10 quantity_e_9_0
                    *              0             0               
    11 quantity_e_10_0
                    *              0             0               
    12 quantity_e_11_0
                    *           4318             0               
    13 quantity_e_12_0
                    *              0             0               
    14 quantity_e_13_0
                    *              0             0               
    15 quantity_e_14_0
                    *           3003             0               
    16 quantity_e_15_0
                    *              0             0               
    17 quantity_e_16_0
                    *              0             0               
    18 quantity_e_17_0
                    *              0             0               
    19 quantity_e_18_0
                    *           1094             0               
    20 quantity_e_19_0
                    *              0             0               
    21 quantity_e_20_0
                    *              0             0               
    22 quantity_e_21_0
                    *              0             0               
    23 quantity_e_22_0
                    *              0             0               
    24 quantity_e_23_0
                    *              0             0               
    25 quantity_e_24_0
                    *              0             0               
    26 quantity_e_25_0
                    *              0             0               
    27 quantity_e_26_0
                    *              0             0               
    28 quantity_e_27_0
                    *              0             0               
    29 quantity_e_28_0
                    *              0             0               
    30 quantity_e_29_0
                    *              0             0               
    31 quantity_e_30_0
                    *           1043             0               
    32 quantity_e_31_0
                    *              0             0               
    33 quantity_e_32_0
                    *           1419             0               
    34 quantity_e_33_0
                    *              0             0               
    35 quantity_e_34_0
                    *              0             0               
    36 quantity_e_35_0
                    *              0             0               
    37 quantity_e_36_0
                    *              0             0               
    38 quantity_e_37_0
                    *              0             0               
    39 quantity_e_38_0
                    *              0             0               
    40 quantity_e_39_0
                    *              0             0               
    41 quantity_e_40_0
                    *              0             0               
    42 quantity_e_41_0
                    *              0             0               
    43 quantity_e_42_0
                    *              0             0               
    44 quantity_e_43_0
                    *              0             0               
    45 quantity_e_44_0
                    *              0             0               
    46 quantity_e_45_0
                    *              0             0               
    47 quantity_e_46_0
                    *              0             0               
    48 quantity_e_47_0
                    *            910             0               
    49 quantity_e_48_0
                    *              0             0               
    50 quantity_e_49_0
                    *              0             0               
    51 quantity_e_50_0
                    *            910             0               
    52 quantity_e_51_0
                    *              0             0               
    53 quantity_e_52_0
                    *           2035             0               
    54 quantity_e_53_0
                    *              0             0               
    55 quantity_e_54_0
                    *              0             0               
    56 quantity_e_55_0
                    *           1094             0               
    57 quantity_e_56_0
                    *           2004             0               
    58 quantity_e_57_0
                    *              0             0               
    59 quantity_e_58_0
                    *              0             0               
    60 quantity_e_59_0
                    *              0             0               
    61 quantity_e_60_0
                    *              0             0               
    62 quantity_e_61_0
                    *              0             0               
    63 quantity_e_62_0
                    *           1557             0               
    64 quantity_e_63_0
                    *              0             0               
    65 quantity_e_64_0
                    *           4869             0               
    66 quantity_e_65_0
                    *            551             0               
    67 quantity_e_66_0
                    *              0             0               
    68 quantity_e_67_0
                    *            551             0               
    69 quantity_e_68_0
                    *              0             0               
    70 quantity_e_69_0
                    *              0             0               
    71 quantity_e_70_0
                    *            551             0               
    72 quantity_e_71_0
                    *              0             0               
    73 quantity_e_72_0
                    *              0             0               
    74 quantity_e_73_0
                    *              0             0               
    75 quantity_e_74_0
                    *           4869             0               
    76 quantity_e_75_0
                    *              0             0               

Integer feasibility conditions:

KKT.PE: max.abs.err = 0.00e+00 on row 0
        max.rel.err = 0.00e+00 on row 0
        High quality

KKT.PB: max.abs.err = 0.00e+00 on row 0
        max.rel.err = 0.00e+00 on row 0
        High quality

End of output
